#######################
Slurm job id: 17497813_208
Running on machine: p71
Running cmd: /nfs/shared/static-builds/gurobi1202 SOFTMEMLIMIT=125 MIPFocus=2 Presolve=1 TimeLimit=500 seed=17 /nfs/models/miplib2010/k16x240.mps.bz2
#######################
Set parameter TimeLimit to value 500
Set parameter SoftMemLimit to value 125
Set parameter MIPFocus to value 2
Set parameter LogFile to value 1202-MIPFocus2-Presolve1-TimeLimit500-k16x240-7.log
Set parameter Presolve to value 1
Set parameter Seed to value 17
Using license file /opt/gurobi/gurobi.lic

Gurobi Optimizer version 12.0.2 build v12.0.2rc0 (linux64 - "Ubuntu 22.04.4 LTS")
Copyright (c) 2025, Gurobi Optimization, LLC

Read MPS format model from file /nfs/models/miplib2010/k16x240.mps.bz2
Reading time = 0.00 seconds
k16x240: 256 rows, 480 columns, 960 nonzeros

Using Gurobi shared library /nfs/shared/static-builds/gurobi1202

CPU model: Intel(R) Xeon(R) E-2388G CPU @ 3.20GHz, instruction set [SSE2|AVX|AVX2|AVX512]
Thread count: 8 physical cores, 16 logical processors, using up to 16 threads

Non-default parameters:
TimeLimit  500
SoftMemLimit  125
MIPFocus  2
Presolve  1
Seed  17

Optimize a model with 256 rows, 480 columns and 960 nonzeros
Model fingerprint: 0x4e80885f
Variable types: 240 continuous, 240 integer (240 binary)
Coefficient statistics:
  Matrix range     [1e+00, 1e+03]
  Objective range  [1e+00, 1e+03]
  Bounds range     [1e+00, 1e+03]
  RHS range        [4e+00, 4e+02]
Found heuristic solution: objective 21882.000000
Presolve time: 0.00s
Presolved: 256 rows, 480 columns, 960 nonzeros
Variable types: 240 continuous, 240 integer (240 binary)

Root relaxation: objective 2.769838e+03, 51 iterations, 0.00 seconds (0.00 work units)

    Nodes    |    Current Node    |     Objective Bounds      |     Work
 Expl Unexpl |  Obj  Depth IntInf | Incumbent    BestBd   Gap | It/Node Time

     0     0 2769.83800    0   14 21882.0000 2769.83800  87.3%     -    0s
H    0     0                    11359.000000 2769.83800  75.6%     -    0s
H    0     0                    11195.000000 2769.83800  75.3%     -    0s
H    0     0                    11088.000000 2769.83800  75.0%     -    0s
H    0     0                    11074.000000 2769.83800  75.0%     -    0s
     0     0 8116.87580    0   26 11074.0000 8116.87580  26.7%     -    0s
H    0     0                    10916.000000 8161.01413  25.2%     -    0s
     0     0 8588.30479    0   25 10916.0000 8588.30479  21.3%     -    0s
H    0     0                    10896.000000 8613.92228  20.9%     -    0s
H    0     0                    10806.000000 8613.92228  20.3%     -    0s
     0     0 8613.92228    0   22 10806.0000 8613.92228  20.3%     -    0s
     0     0 8718.84268    0   23 10806.0000 8718.84268  19.3%     -    0s
H    0     0                    10792.000000 8722.38805  19.2%     -    0s
H    0     0                    10748.000000 8722.38805  18.8%     -    0s
     0     0 8841.21632    0   38 10748.0000 8841.21632  17.7%     -    0s
     0     0 8841.47582    0   38 10748.0000 8841.47582  17.7%     -    0s
     0     0 8979.74896    0   46 10748.0000 8979.74896  16.5%     -    0s
     0     0 9012.04372    0   42 10748.0000 9012.04372  16.2%     -    0s
     0     0 9012.52070    0   45 10748.0000 9012.52070  16.1%     -    0s
     0     0 9079.53648    0   31 10748.0000 9079.53648  15.5%     -    0s
     0     0 9090.77124    0   30 10748.0000 9090.77124  15.4%     -    0s
     0     0 9136.31016    0   29 10748.0000 9136.31016  15.0%     -    0s
     0     0 9136.86382    0   29 10748.0000 9136.86382  15.0%     -    0s
     0     2 9136.93574    0   29 10748.0000 9136.93574  15.0%     -    0s
H   67    79                    10681.000000 9209.81364  13.8%  50.3    0s
H  862   760                    10678.000000 9352.11516  12.4%  20.8    0s
H  889   760                    10674.000000 9352.11516  12.4%  20.9    0s
 36586 13580 10309.6754   34   11 10674.0000 10015.0391  6.17%  27.0    5s
 83778 18581 10477.9575   23   34 10674.0000 10226.6618  4.19%  28.7   10s
 133682  9317 10537.0086   37   23 10674.0000 10439.7170  2.19%  27.9   15s

Cutting planes:
  Gomory: 1
  Lift-and-project: 12
  Cover: 104
  Implied bound: 37
  Dual implied bound: 11
  MIR: 149
  Flow cover: 307
  Flow path: 21
  Inf proof: 3
  Zero half: 5
  Network: 43
  Relax-and-lift: 2

Explored 150555 nodes (4016707 simplex iterations) in 16.12 seconds (21.12 work units)
Thread count was 16 (of 16 available processors)

Solution count 10: 10674 10678 10681 ... 11088

Optimal solution found (tolerance 1.00e-04)
Best objective 1.067400000000e+04, best bound 1.067400000000e+04, gap 0.0000%
